<instance format="XCSP3" type="CSP">
  <variables>
    <var id="x0"> 1 6 9 12 13 </var>
    <var id="x1"> 6 7 9 13 17 </var>
    <var id="x2"> 1 4 13 </var>
    <var id="x3"> 6 17 </var>
    <var id="x4"> 1 6 7 9 </var>
    <var id="x5"> 1 9 12 17 </var>
    <var id="x6"> 1 6 12 13 </var>
    <var id="x7"> 1 4 12 13 17 </var>
    <var id="x8"> 3 5 6 9 16 </var>
    <var id="x9"> 1 3 14 </var>
    <var id="x10"> 5 6 </var>
    <var id="x11"> 3 14 </var>
    <var id="x12"> 3 5 6 9 14 16 </var>
    <var id="x13"> 9 14 </var>
    <var id="x14"> 1 5 6 16 </var>
    <var id="x15"> 5 6 10 13 </var>
    <var id="x16"> 2 4 5 13 </var>
    <var id="x17"> 2 4 5 13 </var>
    <var id="x18"> 3 5 6 13 16 </var>
    <var id="x19"> 3 13 </var>
    <var id="x20"> 5 13 </var>
    <var id="x21"> 2 6 10 13 </var>
    <var id="x22"> 4 6 </var>
    <var id="x23"> 5 7 12 13 </var>
    <var id="x24"> 5 7 13 </var>
    <var id="x25"> 1 13 14 </var>
    <var id="x26"> 5 10 </var>
    <var id="x27"> 7 10 13 14 </var>
    <var id="x28"> 5 7 12..14 </var>
    <var id="x29"> 1 7 14 </var>
    <var id="x30"> 1 10 13 </var>
    <var id="x31"> 4 7 13 </var>
    <var id="x32"> 7 13 </var>
    <var id="x33"> 1 4 8 11 13 </var>
    <var id="x34"> 0 1 4 7 13 </var>
    <var id="x35"> 1 10 </var>
    <var id="x36"> 1 10 11 13 </var>
    <var id="x37"> 1 8 10 </var>
    <var id="x38"> 5 6 </var>
    <var id="x39"> 1 2 4 5 12 </var>
    <var id="x40"> 2 5 6 8 10 </var>
    <var id="x41"> 5 6 8 </var>
    <var id="x42"> 1 8 12 </var>
    <var id="x43"> 1 5 6 8 </var>
    <var id="x44"> 1 4 6 </var>
    <var id="x45"> 1 5 6 10 12 </var>
    <var id="x46"> 0 8 </var>
    <var id="x47"> 9 10 15 </var>
    <var id="x48"> 5 9 11 15 </var>
    <var id="x49"> 5 9 10 </var>
    <var id="x50"> 6 10 11 15 </var>
    <var id="x51"> 0 6 9 11 </var>
    <var id="x52"> 5 8..10 15 </var>
    <var id="x53"> 5 6 10 </var>
    <var id="x54"> 1 5 6 9 13 15 </var>
    <var id="x55"> 1 5 13 </var>
    <var id="x56"> 5 6 8 15 </var>
    <var id="x57"> 5 6 8 9 13 16 </var>
    <var id="x58"> 1 8 13 </var>
    <var id="x59"> 1 6 9 </var>
    <var id="x60"> 1 5 8 9 15 16 </var>
    <var id="x61"> 1 8 13 16 </var>
    <var id="x62"> 4 9 12 13 </var>
    <var id="x63"> 1 4 12 13 </var>
    <var id="x64"> 8 17 </var>
    <var id="x65"> 8 12 13 17 </var>
    <var id="x66"> 4 9 13 </var>
    <var id="x67"> 9 12 13 </var>
    <var id="x68"> 1 9 12 17 </var>
    <var id="x69"> 6 9 13 </var>
    <var id="x70"> 3 6 7 9 13 17 </var>
    <var id="x71"> 7 13 </var>
    <var id="x72"> 3 13 14 17 </var>
    <var id="x73"> 3 6 9 13 14 </var>
    <var id="x74"> 3 7 11 13 </var>
    <var id="x75"> 7 9 11 13 14 </var>
    <var id="x76"> 6 7 9 11 14 </var>
    <var id="x77"> 1 13 15 </var>
    <var id="x78"> 2 4 13 15 </var>
    <var id="x79"> 1..4 11 13 14 </var>
    <var id="x80"> 1 3 11 13 </var>
    <var id="x81"> 1 3 15 </var>
    <var id="x82"> 1 3 14 </var>
    <var id="x83"> 1 2 11 13 15 </var>
    <var id="x84"> 1 3 15 </var>
    <var id="x85"> 5 10 12 15 </var>
    <var id="x86"> 2 5 10 15 17 </var>
    <var id="x87"> 10 14 15 </var>
    <var id="x88"> 5 12 14 15 </var>
    <var id="x89"> 3 5 15 </var>
    <var id="x90"> 3 5 10 12 14 17 </var>
    <var id="x91"> 2 10 12 15 </var>
    <var id="x92"> 12 14 17 </var>
    <var id="x93"> 7 9 12 13 15 </var>
    <var id="x94"> 7 9 13 16 </var>
    <var id="x95"> 7 9 10 13 15 </var>
    <var id="x96"> 0 7 12 13 </var>
    <var id="x97"> 9 10 12 </var>
    <var id="x98"> 0 7 9 </var>
    <var id="x99"> 12 13 16 </var>
    <var id="x100"> 10 12 16 </var>
    <var id="x101"> 5 7 12 13 15 </var>
    <var id="x102"> 0 1 5 7 12 13 </var>
    <var id="x103"> 0 8 12 13 </var>
    <var id="x104"> 5 8 13 </var>
    <var as="x101" id="x105"/>
    <var id="x106"> 1 5 7 8 15 </var>
    <var id="x107"> 1 12 13 15 </var>
    <var id="x108"> 1 8 12 13 </var>
    <var id="x109"> 1 5 6 9 15 </var>
    <var id="x110"> 1 2 8 14 </var>
    <var id="x111"> 5 6 8 9 14 </var>
    <var id="x112"> 1 8 </var>
    <var id="x113"> 1 5 6 8 9 15 </var>
    <var id="x114"> 1 5 8 9 15 </var>
    <var id="x115"> 1 8 14 </var>
    <var id="x116"> 1 5 6 </var>
    <var id="x117"> 3 11 14 </var>
    <var id="x118"> 5 7 12 </var>
    <var id="x119"> 5 11 </var>
    <var id="x120"> 3 5 7 9 </var>
    <var id="x121"> 11 12 </var>
    <var id="x122"> 7 9 11 14 </var>
    <var id="x123"> 3 5 9 16 </var>
    <var id="x124"> 12 14 16 </var>
    <var id="x125"> 3 5 13 17 </var>
    <var id="x126"> 3 11 13 14 </var>
    <var id="x127"> 3 12..14 17 </var>
    <var id="x128"> 3 5 13 14 </var>
    <var id="x129"> 3 5 15 </var>
    <var id="x130"> 3 5 15 </var>
    <var id="x131"> 12..14 17 </var>
    <var id="x132"> 5 12 17 </var>
    <var id="x133"> 7 9 12 13 </var>
    <var id="x134"> 3 8 12 13 17 </var>
    <var id="x135"> 7 9 13 </var>
    <var id="x136"> 1 3 7 8 12 13 </var>
    <var id="x137"> 7 9 12 13 </var>
    <var id="x138"> 1 3 9 12 17 </var>
    <var id="x139"> 1 3 8 9 </var>
    <var id="x140"> 1 12 17 </var>
  </variables>
  <constraints>
    <group>
      <allDifferent> %... </allDifferent>
      <args> x0 x1 x2 x3 x4 x5 x6 x7 </args>
      <args> x8 x9 x10 x11 x12 x13 x14 </args>
      <args> x15 x16 x17 x18 x19 x20 x21 x22 </args>
      <args> x23 x24 x25 x26 x27 x28 x29 </args>
      <args> x30 x31 x32 x33 x34 x35 x36 x37 </args>
      <args> x38 x39 x40 x41 x42 x43 x44 x45 </args>
      <args> x46 x47 x48 x49 x50 x51 x52 x53 </args>
      <args> x54 x55 x56 x57 x58 x59 x60 x61 </args>
      <args> x62 x63 x64 x65 x66 x67 x68 </args>
      <args> x69 x70 x71 x72 x73 x74 x75 x76 </args>
      <args> x77 x78 x79 x80 x81 x82 x83 x84 </args>
      <args> x85 x86 x87 x88 x89 x90 x91 x92 </args>
      <args> x93 x94 x95 x96 x97 x98 x99 x100 </args>
      <args> x101 x102 x103 x104 x105 x106 x107 x108 </args>
      <args> x109 x110 x111 x112 x113 x114 x115 x116 </args>
      <args> x117 x118 x119 x120 x121 x122 x123 x124 </args>
      <args> x125 x126 x127 x128 x129 x130 x131 x132 </args>
      <args> x133 x134 x135 x136 x137 x138 x139 x140 </args>
      <args> x0 x15 x30 x54 x69 x77 x85 x109 </args>
      <args> x16 x23 x31 x62 x78 x93 x101 x133 </args>
      <args> x1 x8 x24 x32 x38 x70 x94 x125 </args>
      <args> x2 x9 x25 x33 x79 x110 x117 x126 </args>
      <args> x17 x34 x39 x55 x63 x71 x102 x118 </args>
      <args> x3 x10 x26 x40 x56 x64 x86 x119 </args>
      <args> x11 x46 x65 x72 x103 x127 x134 </args>
      <args> x12 x18 x41 x57 x73 x104 x111 x128 </args>
      <args> x13 x27 x47 x66 x87 x95 x135 </args>
      <args> x19 x42 x58 x74 x80 x96 x112 x136 </args>
      <args> x20 x28 x48 x67 x75 x88 x105 x137 </args>
      <args> x4 x43 x81 x89 x106 x113 x120 x129 </args>
      <args> x5 x35 x49 x68 x82 x90 x97 x138 </args>
      <args> x6 x21 x36 x50 x83 x91 x107 x121 </args>
      <args> x22 x29 x44 x51 x59 x76 x98 x122 </args>
      <args> x37 x52 x60 x84 x114 x123 x130 x139 </args>
      <args> x7 x61 x92 x99 x108 x115 x124 x131 </args>
      <args> x14 x45 x53 x100 x116 x132 x140 </args>
    </group>
  </constraints>
</instance>

